Input: forum-13crafb.prec25.dzn
============================================================
Total Runtime: 1.4374 seconds
Input parsing: 0.0035 seconds
Constraint building: 0.7852 seconds
MaxSAT solving: 0.1722 seconds
============================================================

Total variables: 223804
Total clauses: 467087
MaxSAT found with cost: N/A
NO SOLUTION FOUND
